g3 2 1 0	# problem inst_sans_ref
 65 222 1 0 55	# vars, constraints, objectives, ranges, eqns
 55 1	# nonlinear constraints, objectives
 0 0	# network constraints: nonlinear, linear
 10 10 10	# nonlinear vars in constraints, objectives, both
 0 0 0 1	# linear network variables; functions; arith, flags
 0 0 0 0 0	# discrete variables: binary, integer, nonlinear (b,c,o)
 660 57	# nonzeros in Jacobian, gradients
 0 0	# max name lengths: constraints, variables
 0 0 0 0 0	# common exprs: b,c,o,c1,o1
b
0 0 1
0 0 1
0 0 1
0 0 1
0 0 1
0 0 1
0 0 1
0 0 1
0 0 1
0 0 1
0 0 1
0 0 1
0 0 1
0 0 1
0 0 1
0 0 1
0 0 1
0 0 1
0 0 1
0 0 1
0 0 1
0 0 1
0 0 1
0 0 1
0 0 1
0 0 1
0 0 1
0 0 1
0 0 1
0 0 1
0 0 1
0 0 1
0 0 1
0 0 1
0 0 1
0 0 1
0 0 1
0 0 1
0 0 1
0 0 1
0 0 1
0 0 1
0 0 1
0 0 1
0 0 1
0 0 1
0 0 1
0 0 1
0 0 1
0 0 1
0 0 1
0 0 1
0 0 1
0 0 1
0 0 1
0 0 1
0 0 1
0 0 1
0 0 1
0 0 1
0 0 1
0 0 1
0 0 1
0 0 1
0 0 1
r
4 0
4 0
4 0
4 0
4 0
4 0
4 0
4 0
4 0
4 0
4 0
4 0
4 0
4 0
4 0
4 0
4 0
4 0
4 0
4 0
4 0
4 0
4 0
4 0
4 0
4 0
4 0
4 0
4 0
4 0
4 0
4 0
4 0
4 0
4 0
4 0
4 0
4 0
4 0
4 0
4 0
4 0
4 0
4 0
4 0
4 0
4 0
4 0
4 0
4 0
4 0
4 0
4 0
4 0
4 0
1 20.42
1 20.25
1 0
1 0
1 0
1 0
1 0
1 0
1 0
1 0
1 0
1 0
1 0
1 0
1 0
1 0
1 0
1 0
1 0
1 0
1 0
1 0
1 0
1 0
1 0
1 0
1 0
1 0
1 0
1 0
1 0
1 0
1 0
1 0
1 0
1 0
1 0
1 0
1 0
1 0
1 0
1 0
1 0
1 0
1 0
1 0
1 0
1 0
1 0
1 0
1 0
1 0
1 0
1 0
1 0
1 0
1 0
1 0
1 0
1 0
1 0
1 0
1 0
1 0
1 0
1 0
1 0
1 0
1 0
1 0
1 0
1 0
1 0
1 0
1 0
1 0
1 0
1 0
1 0
1 0
1 0
1 0
1 0
1 0
1 0
1 0
1 0
1 0
1 0
1 0
1 0
1 0
1 0
1 0
1 0
1 0
1 0
1 0
1 0
1 0
1 0
1 0
2 -1
2 -1
2 -1
2 -1
2 -1
2 -1
2 -1
2 -1
2 -1
2 -1
2 -1
2 -1
2 -1
2 -1
2 -1
2 -1
2 -1
2 -1
2 -1
2 -1
2 -1
2 -1
2 -1
2 -1
2 -1
2 -1
2 -1
2 -1
2 -1
2 -1
2 -1
2 -1
2 -1
2 -1
2 -1
2 -1
2 -1
2 -1
2 -1
2 -1
2 -1
2 -1
2 -1
2 -1
2 -1
2 -1
2 -1
2 -1
2 -1
2 -1
2 -1
2 -1
2 -1
2 -1
2 -1
2 0
2 0
2 0
2 0
2 0
2 0
2 0
2 0
2 0
2 0
C0
o16
o2
v0
v0
C1
o16
o2
v0
v1
C2
o16
o2
v0
v2
C3
o16
o2
v0
v3
C4
o16
o2
v0
v4
C5
o16
o2
v0
v5
C6
o16
o2
v0
v6
C7
o16
o2
v0
v7
C8
o16
o2
v0
v8
C9
o16
o2
v0
v9
C10
o16
o2
v1
v1
C11
o16
o2
v1
v2
C12
o16
o2
v1
v3
C13
o16
o2
v1
v4
C14
o16
o2
v1
v5
C15
o16
o2
v1
v6
C16
o16
o2
v1
v7
C17
o16
o2
v1
v8
C18
o16
o2
v1
v9
C19
o16
o2
v2
v2
C20
o16
o2
v2
v3
C21
o16
o2
v2
v4
C22
o16
o2
v2
v5
C23
o16
o2
v2
v6
C24
o16
o2
v2
v7
C25
o16
o2
v2
v8
C26
o16
o2
v2
v9
C27
o16
o2
v3
v3
C28
o16
o2
v3
v4
C29
o16
o2
v3
v5
C30
o16
o2
v3
v6
C31
o16
o2
v3
v7
C32
o16
o2
v3
v8
C33
o16
o2
v3
v9
C34
o16
o2
v4
v4
C35
o16
o2
v4
v5
C36
o16
o2
v4
v6
C37
o16
o2
v4
v7
C38
o16
o2
v4
v8
C39
o16
o2
v4
v9
C40
o16
o2
v5
v5
C41
o16
o2
v5
v6
C42
o16
o2
v5
v7
C43
o16
o2
v5
v8
C44
o16
o2
v5
v9
C45
o16
o2
v6
v6
C46
o16
o2
v6
v7
C47
o16
o2
v6
v8
C48
o16
o2
v6
v9
C49
o16
o2
v7
v7
C50
o16
o2
v7
v8
C51
o16
o2
v7
v9
C52
o16
o2
v8
v8
C53
o16
o2
v8
v9
C54
o16
o2
v9
v9
C55
n0
C56
n0
C57
n0
C58
n0
C59
n0
C60
n0
C61
n0
C62
n0
C63
n0
C64
n0
C65
n0
C66
n0
C67
n0
C68
n0
C69
n0
C70
n0
C71
n0
C72
n0
C73
n0
C74
n0
C75
n0
C76
n0
C77
n0
C78
n0
C79
n0
C80
n0
C81
n0
C82
n0
C83
n0
C84
n0
C85
n0
C86
n0
C87
n0
C88
n0
C89
n0
C90
n0
C91
n0
C92
n0
C93
n0
C94
n0
C95
n0
C96
n0
C97
n0
C98
n0
C99
n0
C100
n0
C101
n0
C102
n0
C103
n0
C104
n0
C105
n0
C106
n0
C107
n0
C108
n0
C109
n0
C110
n0
C111
n0
C112
n0
C113
n0
C114
n0
C115
n0
C116
n0
C117
n0
C118
n0
C119
n0
C120
n0
C121
n0
C122
n0
C123
n0
C124
n0
C125
n0
C126
n0
C127
n0
C128
n0
C129
n0
C130
n0
C131
n0
C132
n0
C133
n0
C134
n0
C135
n0
C136
n0
C137
n0
C138
n0
C139
n0
C140
n0
C141
n0
C142
n0
C143
n0
C144
n0
C145
n0
C146
n0
C147
n0
C148
n0
C149
n0
C150
n0
C151
n0
C152
n0
C153
n0
C154
n0
C155
n0
C156
n0
C157
n0
C158
n0
C159
n0
C160
n0
C161
n0
C162
n0
C163
n0
C164
n0
C165
n0
C166
n0
C167
n0
C168
n0
C169
n0
C170
n0
C171
n0
C172
n0
C173
n0
C174
n0
C175
n0
C176
n0
C177
n0
C178
n0
C179
n0
C180
n0
C181
n0
C182
n0
C183
n0
C184
n0
C185
n0
C186
n0
C187
n0
C188
n0
C189
n0
C190
n0
C191
n0
C192
n0
C193
n0
C194
n0
C195
n0
C196
n0
C197
n0
C198
n0
C199
n0
C200
n0
C201
n0
C202
n0
C203
n0
C204
n0
C205
n0
C206
n0
C207
n0
C208
n0
C209
n0
C210
n0
C211
n0
C212
n0
C213
n0
C214
n0
C215
n0
C216
n0
C217
n0
C218
n0
C219
n0
C220
n0
C221
n0
O0 0
o54
100
o2
o2
n1.16744
v0
v0
o2
o2
n-0.217275
v0
v1
o2
o2
n0.109782
v0
v2
o2
o2
n0.614446
v0
v3
o2
o2
n0.535
v0
v4
o2
o2
n0.220371
v0
v5
o2
o2
n0.6
v0
v6
o2
o2
n0.091219
v0
v7
o2
o2
n-0.338535
v0
v8
o2
o2
n-0.705
v0
v9
o2
o2
n-0.217275
v1
v0
o2
o2
n2.075776
v1
v1
o2
o2
n-0.07094
v1
v2
o2
o2
n-0.515
v1
v3
o2
o2
n-0.74138
v1
v4
o2
o2
n0.048271
v1
v5
o2
o2
n-0.255592
v1
v6
o2
o2
n0.318511
v1
v7
o2
o2
n-0.675352
v1
v8
o2
o2
n0.801051
v1
v9
o2
o2
n0.109782
v2
v0
o2
o2
n-0.07094
v2
v1
o2
o2
n4.997312
v2
v2
o2
o2
n-0.483983
v2
v3
o2
o2
n-0.925
v2
v4
o2
o2
n-0.007867
v2
v5
o2
o2
n0.774353
v2
v6
o2
o2
n-0.092144
v2
v7
o2
o2
n-0.751702
v2
v8
o2
o2
n0.610454
v2
v9
o2
o2
n0.614446
v3
v0
o2
o2
n-0.515
v3
v1
o2
o2
n-0.483983
v3
v2
o2
o2
n3.400636
v3
v3
o2
o2
n-0.175
v3
v4
o2
o2
n-0.299971
v3
v5
o2
o2
n0.526351
v3
v6
o2
o2
n-0.579872
v3
v7
o2
o2
n-0.034309
v3
v8
o2
o2
n-0.165
v3
v9
o2
o2
n0.535
v4
v0
o2
o2
n-0.74138
v4
v1
o2
o2
n-0.925
v4
v2
o2
o2
n-0.175
v4
v3
o2
o2
n5.459188
v4
v4
o2
o2
n0.25623
v4
v5
o2
o2
n-0.179141
v4
v6
o2
o2
n-0.383734
v4
v7
o2
o2
n-0.588192
v4
v8
o2
o2
n0.01817
v4
v9
o2
o2
n0.220371
v5
v0
o2
o2
n0.048271
v5
v1
o2
o2
n-0.007867
v5
v2
o2
o2
n-0.299971
v5
v3
o2
o2
n0.25623
v5
v4
o2
o2
n0.479957
v5
v5
o2
o2
n0.468805
v5
v6
o2
o2
n0.699973
v5
v7
o2
o2
n-0.104208
v5
v8
o2
o2
n0.1
v5
v9
o2
o2
n0.6
v6
v0
o2
o2
n-0.255592
v6
v1
o2
o2
n0.774353
v6
v2
o2
o2
n0.526351
v6
v3
o2
o2
n-0.179141
v6
v4
o2
o2
n0.468805
v6
v5
o2
o2
n1.189674
v6
v6
o2
o2
n0.661885
v6
v7
o2
o2
n-0.40492
v6
v8
o2
o2
n-0.582858
v6
v9
o2
o2
n0.091219
v7
v0
o2
o2
n0.318511
v7
v1
o2
o2
n-0.092144
v7
v2
o2
o2
n-0.579872
v7
v3
o2
o2
n-0.383734
v7
v4
o2
o2
n0.699973
v7
v5
o2
o2
n0.661885
v7
v6
o2
o2
n1.273409
v7
v7
o2
o2
n0.004422
v7
v8
o2
o2
n0.575973
v7
v9
o2
o2
n-0.338535
v8
v0
o2
o2
n-0.675352
v8
v1
o2
o2
n-0.751702
v8
v2
o2
o2
n-0.034309
v8
v3
o2
o2
n-0.588192
v8
v4
o2
o2
n-0.104208
v8
v5
o2
o2
n-0.40492
v8
v6
o2
o2
n0.004422
v8
v7
o2
o2
n2.612154
v8
v8
o2
o2
n-0.274483
v8
v9
o2
o2
n-0.705
v9
v0
o2
o2
n0.801051
v9
v1
o2
o2
n0.610454
v9
v2
o2
o2
n-0.165
v9
v3
o2
o2
n0.01817
v9
v4
o2
o2
n0.1
v9
v5
o2
o2
n-0.582858
v9
v6
o2
o2
n0.575973
v9
v7
o2
o2
n-0.274483
v9
v8
o2
o2
n3.515653
v9
v9
k64
33
66
99
132
165
198
231
264
297
330
336
342
348
354
360
366
372
378
384
390
396
402
408
414
420
426
432
438
444
450
456
462
468
474
480
486
492
498
504
510
516
522
528
534
540
546
552
558
564
570
576
582
588
594
600
606
612
618
624
630
636
642
648
654
J0 2
0 0
10 1
J1 3
0 0
1 0
11 1
J2 3
0 0
2 0
12 1
J3 3
0 0
3 0
13 1
J4 3
0 0
4 0
14 1
J5 3
0 0
5 0
15 1
J6 3
0 0
6 0
16 1
J7 3
0 0
7 0
17 1
J8 3
0 0
8 0
18 1
J9 3
0 0
9 0
19 1
J10 2
1 0
20 1
J11 3
1 0
2 0
21 1
J12 3
1 0
3 0
22 1
J13 3
1 0
4 0
23 1
J14 3
1 0
5 0
24 1
J15 3
1 0
6 0
25 1
J16 3
1 0
7 0
26 1
J17 3
1 0
8 0
27 1
J18 3
1 0
9 0
28 1
J19 2
2 0
29 1
J20 3
2 0
3 0
30 1
J21 3
2 0
4 0
31 1
J22 3
2 0
5 0
32 1
J23 3
2 0
6 0
33 1
J24 3
2 0
7 0
34 1
J25 3
2 0
8 0
35 1
J26 3
2 0
9 0
36 1
J27 2
3 0
37 1
J28 3
3 0
4 0
38 1
J29 3
3 0
5 0
39 1
J30 3
3 0
6 0
40 1
J31 3
3 0
7 0
41 1
J32 3
3 0
8 0
42 1
J33 3
3 0
9 0
43 1
J34 2
4 0
44 1
J35 3
4 0
5 0
45 1
J36 3
4 0
6 0
46 1
J37 3
4 0
7 0
47 1
J38 3
4 0
8 0
48 1
J39 3
4 0
9 0
49 1
J40 2
5 0
50 1
J41 3
5 0
6 0
51 1
J42 3
5 0
7 0
52 1
J43 3
5 0
8 0
53 1
J44 3
5 0
9 0
54 1
J45 2
6 0
55 1
J46 3
6 0
7 0
56 1
J47 3
6 0
8 0
57 1
J48 3
6 0
9 0
58 1
J49 2
7 0
59 1
J50 3
7 0
8 0
60 1
J51 3
7 0
9 0
61 1
J52 2
8 0
62 1
J53 3
8 0
9 0
63 1
J54 2
9 0
64 1
J55 65
0 0.51
1 0.43
2 0.95
3 -0.76
4 -0.53
5 0.77
6 0.36
7 0.35
8 -0.98
9 0.62
10 -0.13
11 -1.84
12 0.9
13 -1.63
14 -1.71
15 0.91
16 1.18
17 0.25
18 -1.32
19 1.09
20 0.25
21 1.57
22 -0.87
23 -0.48
24 -1.55
25 -0.35
26 -0.17
27 1.88
28 -0.9
29 0.73
30 0.51
31 -1.89
32 1.89
33 0.7
34 -0.02
35 0.87
36 1.58
37 -0.92
38 1.7
39 0.39
40 0.28
41 0.16
42 -0.31
43 0.84
44 -0.49
45 -0.65
46 -1.19
47 -1.24
48 -1.17
49 -1.45
50 -0.13
51 2
52 -0.41
53 1.99
54 -0.84
55 -0.47
56 -1.9
57 0.86
58 -0.61
59 -0.39
60 -1.37
61 1.28
62 -0.85
63 1.46
64 -0.38
J56 65
0 0.64
1 -0.58
2 -0.21
3 -0.95
4 -0.81
5 -0.67
6 0.33
7 0.38
8 -0.01
9 -0.33
10 0.38
11 0.82
12 0.82
13 -1.73
14 -0.31
15 0.96
16 0.23
17 -0.17
18 -0.94
19 -1.87
20 -0.39
21 -0.33
22 1.16
23 0.22
24 -1.09
25 -0.51
26 0.69
27 1.91
28 -1.35
29 0.04
30 1.18
31 0.44
32 -0.15
33 0.49
34 -1.04
35 1.5
36 0.62
37 0.84
38 0.47
39 0.98
40 1.23
41 1.13
42 -1.31
43 -1.09
44 0.97
45 -0.9
46 0.19
47 0.77
48 -1.62
49 -1.03
50 -0.04
51 -0.56
52 0.94
53 -0.99
54 -0.98
55 -0.28
56 1.91
57 -0.75
58 1.32
59 -0.69
60 -1.08
61 -0.7
62 -0.29
63 -0.39
64 0.62
J57 2
0 -1
10 1
J58 2
0 -1
11 1
J59 2
0 -1
12 1
J60 2
0 -1
13 1
J61 2
0 -1
14 1
J62 2
0 -1
15 1
J63 2
0 -1
16 1
J64 2
0 -1
17 1
J65 2
0 -1
18 1
J66 2
0 -1
19 1
J67 2
1 -1
20 1
J68 2
1 -1
21 1
J69 2
1 -1
22 1
J70 2
1 -1
23 1
J71 2
1 -1
24 1
J72 2
1 -1
25 1
J73 2
1 -1
26 1
J74 2
1 -1
27 1
J75 2
1 -1
28 1
J76 2
2 -1
29 1
J77 2
2 -1
30 1
J78 2
2 -1
31 1
J79 2
2 -1
32 1
J80 2
2 -1
33 1
J81 2
2 -1
34 1
J82 2
2 -1
35 1
J83 2
2 -1
36 1
J84 2
3 -1
37 1
J85 2
3 -1
38 1
J86 2
3 -1
39 1
J87 2
3 -1
40 1
J88 2
3 -1
41 1
J89 2
3 -1
42 1
J90 2
3 -1
43 1
J91 2
4 -1
44 1
J92 2
4 -1
45 1
J93 2
4 -1
46 1
J94 2
4 -1
47 1
J95 2
4 -1
48 1
J96 2
4 -1
49 1
J97 2
5 -1
50 1
J98 2
5 -1
51 1
J99 2
5 -1
52 1
J100 2
5 -1
53 1
J101 2
5 -1
54 1
J102 2
6 -1
55 1
J103 2
6 -1
56 1
J104 2
6 -1
57 1
J105 2
6 -1
58 1
J106 2
7 -1
59 1
J107 2
7 -1
60 1
J108 2
7 -1
61 1
J109 2
8 -1
62 1
J110 2
8 -1
63 1
J111 2
9 -1
64 1
J112 2
1 -1
11 1
J113 2
2 -1
12 1
J114 2
3 -1
13 1
J115 2
4 -1
14 1
J116 2
5 -1
15 1
J117 2
6 -1
16 1
J118 2
7 -1
17 1
J119 2
8 -1
18 1
J120 2
9 -1
19 1
J121 2
2 -1
21 1
J122 2
3 -1
22 1
J123 2
4 -1
23 1
J124 2
5 -1
24 1
J125 2
6 -1
25 1
J126 2
7 -1
26 1
J127 2
8 -1
27 1
J128 2
9 -1
28 1
J129 2
3 -1
30 1
J130 2
4 -1
31 1
J131 2
5 -1
32 1
J132 2
6 -1
33 1
J133 2
7 -1
34 1
J134 2
8 -1
35 1
J135 2
9 -1
36 1
J136 2
4 -1
38 1
J137 2
5 -1
39 1
J138 2
6 -1
40 1
J139 2
7 -1
41 1
J140 2
8 -1
42 1
J141 2
9 -1
43 1
J142 2
5 -1
45 1
J143 2
6 -1
46 1
J144 2
7 -1
47 1
J145 2
8 -1
48 1
J146 2
9 -1
49 1
J147 2
6 -1
51 1
J148 2
7 -1
52 1
J149 2
8 -1
53 1
J150 2
9 -1
54 1
J151 2
7 -1
56 1
J152 2
8 -1
57 1
J153 2
9 -1
58 1
J154 2
8 -1
60 1
J155 2
9 -1
61 1
J156 2
9 -1
63 1
J157 2
0 -2
10 1
J158 3
0 -1
1 -1
11 1
J159 3
0 -1
2 -1
12 1
J160 3
0 -1
3 -1
13 1
J161 3
0 -1
4 -1
14 1
J162 3
0 -1
5 -1
15 1
J163 3
0 -1
6 -1
16 1
J164 3
0 -1
7 -1
17 1
J165 3
0 -1
8 -1
18 1
J166 3
0 -1
9 -1
19 1
J167 2
1 -2
20 1
J168 3
1 -1
2 -1
21 1
J169 3
1 -1
3 -1
22 1
J170 3
1 -1
4 -1
23 1
J171 3
1 -1
5 -1
24 1
J172 3
1 -1
6 -1
25 1
J173 3
1 -1
7 -1
26 1
J174 3
1 -1
8 -1
27 1
J175 3
1 -1
9 -1
28 1
J176 2
2 -2
29 1
J177 3
2 -1
3 -1
30 1
J178 3
2 -1
4 -1
31 1
J179 3
2 -1
5 -1
32 1
J180 3
2 -1
6 -1
33 1
J181 3
2 -1
7 -1
34 1
J182 3
2 -1
8 -1
35 1
J183 3
2 -1
9 -1
36 1
J184 2
3 -2
37 1
J185 3
3 -1
4 -1
38 1
J186 3
3 -1
5 -1
39 1
J187 3
3 -1
6 -1
40 1
J188 3
3 -1
7 -1
41 1
J189 3
3 -1
8 -1
42 1
J190 3
3 -1
9 -1
43 1
J191 2
4 -2
44 1
J192 3
4 -1
5 -1
45 1
J193 3
4 -1
6 -1
46 1
J194 3
4 -1
7 -1
47 1
J195 3
4 -1
8 -1
48 1
J196 3
4 -1
9 -1
49 1
J197 2
5 -2
50 1
J198 3
5 -1
6 -1
51 1
J199 3
5 -1
7 -1
52 1
J200 3
5 -1
8 -1
53 1
J201 3
5 -1
9 -1
54 1
J202 2
6 -2
55 1
J203 3
6 -1
7 -1
56 1
J204 3
6 -1
8 -1
57 1
J205 3
6 -1
9 -1
58 1
J206 2
7 -2
59 1
J207 3
7 -1
8 -1
60 1
J208 3
7 -1
9 -1
61 1
J209 2
8 -2
62 1
J210 3
8 -1
9 -1
63 1
J211 2
9 -2
64 1
J212 2
0 -1
10 1
J213 2
1 -1
20 1
J214 2
2 -1
29 1
J215 2
3 -1
37 1
J216 2
4 -1
44 1
J217 2
5 -1
50 1
J218 2
6 -1
55 1
J219 2
7 -1
59 1
J220 2
8 -1
62 1
J221 2
9 -1
64 1
G0 57
0 -0.61
1 -0.15
2 0.1
3 0.7
4 0.54
5 0.47
6 0.01
7 -0.4
8 0.92
9 0.72
10 -0.92744
11 0.234549
12 0.040437
13 0.181107
15 1.379258
17 -0.672438
18 0.15707
20 -1.535776
21 0.001881
23 0.00276
24 -0.626542
25 -0.238815
26 0.692979
27 -0.089296
28 -0.002102
29 -5.817312
30 -0.052033
32 -0.014266
33 0.201294
34 -0.285712
35 0.043404
36 0.069092
37 -4.210636
39 -0.770058
40 0.127299
41 -0.030256
42 0.008619
44 -6.339188
45 0.46754
46 -0.021719
47 -0.422531
48 0.016384
49 0.00366
50 -0.809957
51 0.63239
52 0.420054
53 -0.311583
55 -2.009674
56 -0.043769
57 -0.270159
58 -0.194283
59 -1.583409
60 0.551156
61 0.458054
62 -2.882154
63 -0.071034
64 -3.635653
